
  32    4
  10   10   10   10

   0   0   0   0   0   7 2 3 4 5 8 12 23 
   7  10  10  10  10   4 29 16 11 6 
   2  10  10  10  10   6 31 27 20 16 11 10 
  10  10  10  10  10   6 31 30 22 19 18 9 
  10  10  10  10  10   4 30 19 17 7 
   4  10  10  10  10   5 27 25 20 17 10 
   3  10  10  10  10   5 29 28 25 15 14 
   6  10  10  10  10   5 31 25 18 16 14 
   2  10  10  10  10   4 29 27 20 13 
   4  10  10  10  10   4 28 24 21 15 
   6  10  10  10  10   2 19 17 
   3  10  10  10  10   2 30 14 
   1  10  10  10  10   2 25 17 
   1  10  10  10  10   2 27 24 
   2  10  10  10  10   1 18 
  10  10  10  10  10   1 17 
   1  10  10  10  10   1 24 
   8  10  10  10  10   1 26 
  10  10  10  10  10   1 25 
   7  10  10  10  10   1 24 
   9  10  10  10  10   1 26 
   4  10  10  10  10   1 25 
   5  10  10  10  10   1 24 
   9  10  10  10  10   1 32
  10  10  10  10  10   1 32
   7  10  10  10  10   1 32
   6  10  10  10  10   1 32
   1  10  10  10  10   1 32
   2  10  10  10  10   1 32
   9  10  10  10  10   1 32
   6  10  10  10  10   1 32
   0   0   0   0   0   0 
